#This is Python generated data file for Pyomo model DCLF.py
#_author_:W. Bukhsh
#Time stamp: 2018-06-20 14:22:15.977297
set B:=
1
2
3
4
5
6
7
8
9
10
11
12
13
14
15
16
17
18
19
20
21
22
23
24
;
set G:=
G1
G2
G3
G4
G5
G6
G7
G8
G9
G10
G11
G12
G13
G14
G15
G16
G17
G18
G19
G20
G21
G22
G23
G24
G25
G26
G27
G28
G29
G30
G31
G32
G33
;
set D:=
D1
D2
D3
D4
D5
D6
D7
D8
D9
D10
D13
D14
D15
D16
D18
D19
D20
;
param PD:=
D1 1.08
D2 0.97
D3 1.8
D4 0.74
D5 0.71
D6 1.36
D7 1.25
D8 1.71
D9 1.75
D10 1.95
D13 2.65
D14 1.94
D15 3.17
D16 1.0
D18 3.33
D19 1.81
D20 1.28
;
param VOLL:=
D1 100000.0
D2 100000.0
D3 100000.0
D4 100000.0
D5 100000.0
D6 100000.0
D7 100000.0
D8 100000.0
D9 100000.0
D10 100000.0
D13 100000.0
D14 100000.0
D15 100000.0
D16 100000.0
D18 100000.0
D19 100000.0
D20 100000.0
;
param baseMVA:=
100
;
set LE:=
 1 
 2;
set L:=
L1-12
L2-13
L3-15
L4-24
L5-26
L6-39
L7-49
L8-510
L9-610
L10-78
L11-89
L12-810
L13-1113
L14-1114
L15-1213
L16-1223
L17-1323
L18-1416
L19-1516
L20-1521
L21-1521
L22-1524
L23-1617
L24-1619
L25-1718
L26-1722
L27-1821
L28-1821
L29-1920
L30-1920
L31-2023
L32-2023
L33-2122
;
set TRANSF:= 
T1-324
T2-911
T3-912
T4-1011
T5-1012
;
set Gbs:=
1 G1
1 G2
1 G3
1 G4
2 G5
2 G6
2 G7
2 G8
7 G9
7 G10
7 G11
13 G12
13 G13
13 G14
14 G15
15 G16
15 G17
15 G18
15 G19
15 G20
15 G21
16 G22
18 G23
21 G24
22 G25
22 G26
22 G27
22 G28
22 G29
22 G30
23 G31
23 G32
23 G33
;
set Dbs:=
1 D1
2 D2
3 D3
4 D4
5 D5
6 D6
7 D7
8 D8
9 D9
10 D10
13 D13
14 D14
15 D15
16 D16
18 D18
19 D19
20 D20
;
set b0:=
13
;
param A:=
L1-12 1 1
L2-13 1 1
L3-15 1 1
L4-24 1 2
L5-26 1 2
L6-39 1 3
L7-49 1 4
L8-510 1 5
L9-610 1 6
L10-78 1 7
L11-89 1 8
L12-810 1 8
L13-1113 1 11
L14-1114 1 11
L15-1213 1 12
L16-1223 1 12
L17-1323 1 13
L18-1416 1 14
L19-1516 1 15
L20-1521 1 15
L21-1521 1 15
L22-1524 1 15
L23-1617 1 16
L24-1619 1 16
L25-1718 1 17
L26-1722 1 17
L27-1821 1 18
L28-1821 1 18
L29-1920 1 19
L30-1920 1 19
L31-2023 1 20
L32-2023 1 20
L33-2122 1 21
L1-12 2 2
L2-13 2 3
L3-15 2 5
L4-24 2 4
L5-26 2 6
L6-39 2 9
L7-49 2 9
L8-510 2 10
L9-610 2 10
L10-78 2 8
L11-89 2 9
L12-810 2 10
L13-1113 2 13
L14-1114 2 14
L15-1213 2 13
L16-1223 2 23
L17-1323 2 23
L18-1416 2 16
L19-1516 2 16
L20-1521 2 21
L21-1521 2 21
L22-1524 2 24
L23-1617 2 17
L24-1619 2 19
L25-1718 2 18
L26-1722 2 22
L27-1821 2 21
L28-1821 2 21
L29-1920 2 20
L30-1920 2 20
L31-2023 2 23
L32-2023 2 23
L33-2122 2 22
;
param AT:= 
T1-324 1 3
T2-911 1 9
T3-912 1 9
T4-1011 1 10
T5-1012 1 10
T1-324 2 24
T2-911 2 11
T3-912 2 12
T4-1011 2 11
T5-1012 2 12
;
param PGmin:=
G1 0.16
G2 0.16
G3 0.152
G4 0.152
G5 0.16
G6 0.16
G7 0.152
G8 0.152
G9 0.25
G10 0.25
G11 0.25
G12 0.69
G13 0.69
G14 0.69
G15 0.0
G16 0.024
G17 0.024
G18 0.024
G19 0.024
G20 0.024
G21 0.543
G22 0.543
G23 1.0
G24 1.0
G25 0.1
G26 0.1
G27 0.1
G28 0.1
G29 0.1
G30 0.1
G31 0.543
G32 0.543
G33 1.4
;
param PGmax:=
G1 0.2
G2 0.2
G3 0.76
G4 0.76
G5 0.2
G6 0.2
G7 0.76
G8 0.76
G9 1.0
G10 1.0
G11 1.0
G12 1.97
G13 1.97
G14 1.97
G15 0.0
G16 0.12
G17 0.12
G18 0.12
G19 0.12
G20 0.12
G21 1.55
G22 1.55
G23 4.0
G24 4.0
G25 0.5
G26 0.5
G27 0.5
G28 0.5
G29 0.5
G30 0.5
G31 1.55
G32 1.55
G33 3.5
;
param SLmax:=
L1-12 1.75
L2-13 1.75
L3-15 1.75
L4-24 1.75
L5-26 1.75
L6-39 1.75
L7-49 1.75
L8-510 1.75
L9-610 1.75
L10-78 1.75
L11-89 1.75
L12-810 1.75
L13-1113 5.0
L14-1114 5.0
L15-1213 5.0
L16-1223 5.0
L17-1323 5.0
L18-1416 5.0
L19-1516 5.0
L20-1521 5.0
L21-1521 5.0
L22-1524 5.0
L23-1617 5.0
L24-1619 5.0
L25-1718 5.0
L26-1722 5.0
L27-1821 5.0
L28-1821 5.0
L29-1920 5.0
L30-1920 5.0
L31-2023 5.0
L32-2023 5.0
L33-2122 5.0
;
param SLmaxT:=
T1-324 4.0
T2-911 4.0
T3-912 4.0
T4-1011 4.0
T5-1012 4.0
;
param c2:=
G1 0.0
G2 0.0
G3 0.014142
G4 0.014142
G5 0.0
G6 0.0
G7 0.014142
G8 0.014142
G9 0.052672
G10 0.052672
G11 0.052672
G12 0.00717
G13 0.00717
G14 0.00717
G15 0.0
G16 0.328412
G17 0.328412
G18 0.328412
G19 0.328412
G20 0.328412
G21 0.008342
G22 0.008342
G23 0.000213
G24 0.000213
G25 0.0
G26 0.0
G27 0.0
G28 0.0
G29 0.0
G30 0.0
G31 0.008342
G32 0.008342
G33 0.004895
;
param c1:=
G1 130.0
G2 130.0
G3 16.0811
G4 16.0811
G5 130.0
G6 130.0
G7 16.0811
G8 16.0811
G9 43.6615
G10 43.6615
G11 43.6615
G12 48.5804
G13 48.5804
G14 48.5804
G15 0.0
G16 56.564
G17 56.564
G18 56.564
G19 56.564
G20 56.564
G21 12.3883
G22 12.3883
G23 4.4231
G24 4.4231
G25 0.001
G26 0.001
G27 0.001
G28 0.001
G29 0.001
G30 0.001
G31 12.3883
G32 12.3883
G33 11.8495
;
param c0:=
G1 400.6849
G2 400.6849
G3 212.3076
G4 212.3076
G5 400.6849
G6 400.6849
G7 212.3076
G8 212.3076
G9 781.521
G10 781.521
G11 781.521
G12 832.7575
G13 832.7575
G14 832.7575
G15 0.0
G16 86.3852
G17 86.3852
G18 86.3852
G19 86.3852
G20 86.3852
G21 382.2391
G22 382.2391
G23 395.3749
G24 395.3749
G25 0.001
G26 0.001
G27 0.001
G28 0.001
G29 0.001
G30 0.001
G31 382.2391
G32 382.2391
G33 665.1094
;
param BL:=
L1-12 -71.9424460432
L2-13 -4.73484848485
L3-15 -11.8343195266
L4-24 -7.89265982636
L5-26 -5.20833333333
L6-39 -8.40336134454
L7-49 -9.64320154291
L8-510 -11.3250283126
L9-610 -16.5289256198
L10-78 -16.2866449511
L11-89 -6.05693519079
L12-810 -6.05693519079
L13-1113 -21.0084033613
L14-1114 -23.9234449761
L15-1213 -21.0084033613
L16-1223 -10.3519668737
L17-1323 -11.5606936416
L18-1416 -25.706940874
L19-1516 -57.8034682081
L20-1521 -20.4081632653
L21-1521 -20.4081632653
L22-1524 -19.267822736
L23-1617 -38.61003861
L24-1619 -43.29004329
L25-1718 -69.4444444444
L26-1722 -9.49667616334
L27-1821 -38.61003861
L28-1821 -38.61003861
L29-1920 -25.2525252525
L30-1920 -25.2525252525
L31-2023 -46.2962962963
L32-2023 -46.2962962963
L33-2122 -14.7492625369
;
param BLT:=
T1-324 -11.9189511323
T2-911 -11.9189511323
T3-912 -11.9189511323
T4-1011 -11.9189511323
T5-1012 -11.9189511323
;
param BL:=
L1-12 -71.9424460432
L2-13 -4.73484848485
L3-15 -11.8343195266
L4-24 -7.89265982636
L5-26 -5.20833333333
L6-39 -8.40336134454
L7-49 -9.64320154291
L8-510 -11.3250283126
L9-610 -16.5289256198
L10-78 -16.2866449511
L11-89 -6.05693519079
L12-810 -6.05693519079
L13-1113 -21.0084033613
L14-1114 -23.9234449761
L15-1213 -21.0084033613
L16-1223 -10.3519668737
L17-1323 -11.5606936416
L18-1416 -25.706940874
L19-1516 -57.8034682081
L20-1521 -20.4081632653
L21-1521 -20.4081632653
L22-1524 -19.267822736
L23-1617 -38.61003861
L24-1619 -43.29004329
L25-1718 -69.4444444444
L26-1722 -9.49667616334
L27-1821 -38.61003861
L28-1821 -38.61003861
L29-1920 -25.2525252525
L30-1920 -25.2525252525
L31-2023 -46.2962962963
L32-2023 -46.2962962963
L33-2122 -14.7492625369
;
param BLT:=
T1-324 -11.9189511323
T2-911 -11.9189511323
T3-912 -11.9189511323
T4-1011 -11.9189511323
T5-1012 -11.9189511323
;
